 $basis gbasis=pm3 $end
 $contrl runtyp=optimize icharg=0 $end
 $statpt opttol=0.00025 nstep=500 projct=.F. $end
 $data
Title
C1
C     6.0    -0.000100     -0.000100    -0.000100
H     1.0    -0.000000     -0.892600    -0.631100
H     1.0    -0.000000     0.892600    -0.631200
H     1.0    -0.892600     -0.000000    0.631100
H     1.0    0.892700     -0.000000    0.631200
 $end