 $basis gbasis=pm3 $end
 $contrl runtyp=hessian maxit=60 icharg=0 $end
 $force method=seminum $end
 $data
Title
C1
C     6.0    -0.000241     -0.000225    -0.000225
H     1.0    0.000190     -0.887780    -0.627616
H     1.0    0.000190     0.887596    -0.627366
H     1.0    -0.887458     0.000155    0.627722
H     1.0    0.887319     0.000154    0.627385
 $end